c File: flat50_3_0.col
c
c SOURCE: Joseph Culberson (joe@cs.ualberta.ca)
c DESCRIPTION: Quasi-random coloring problem
c              generated with flatness = 0
c                             probability = 0.139
c                             known coloring = 3
c                             random seed = 1911
c              Creation Date:  Tue Jun  9 12:21:00 1998
c Maximum degree = 8 Minimum degree = 2
c p edge 50 115
c cnf created by edge2cnf
p cnf 150 545
-1 -2 0
-1 -3 0
-2 -3 0
1 2 3 0
-4 -5 0
-4 -6 0
-5 -6 0
4 5 6 0
-7 -8 0
-7 -9 0
-8 -9 0
7 8 9 0
-10 -11 0
-10 -12 0
-11 -12 0
10 11 12 0
-13 -14 0
-13 -15 0
-14 -15 0
13 14 15 0
-16 -17 0
-16 -18 0
-17 -18 0
16 17 18 0
-19 -20 0
-19 -21 0
-20 -21 0
19 20 21 0
-22 -23 0
-22 -24 0
-23 -24 0
22 23 24 0
-25 -26 0
-25 -27 0
-26 -27 0
25 26 27 0
-28 -29 0
-28 -30 0
-29 -30 0
28 29 30 0
-31 -32 0
-31 -33 0
-32 -33 0
31 32 33 0
-34 -35 0
-34 -36 0
-35 -36 0
34 35 36 0
-37 -38 0
-37 -39 0
-38 -39 0
37 38 39 0
-40 -41 0
-40 -42 0
-41 -42 0
40 41 42 0
-43 -44 0
-43 -45 0
-44 -45 0
43 44 45 0
-46 -47 0
-46 -48 0
-47 -48 0
46 47 48 0
-49 -50 0
-49 -51 0
-50 -51 0
49 50 51 0
-52 -53 0
-52 -54 0
-53 -54 0
52 53 54 0
-55 -56 0
-55 -57 0
-56 -57 0
55 56 57 0
-58 -59 0
-58 -60 0
-59 -60 0
58 59 60 0
-61 -62 0
-61 -63 0
-62 -63 0
61 62 63 0
-64 -65 0
-64 -66 0
-65 -66 0
64 65 66 0
-67 -68 0
-67 -69 0
-68 -69 0
67 68 69 0
-70 -71 0
-70 -72 0
-71 -72 0
70 71 72 0
-73 -74 0
-73 -75 0
-74 -75 0
73 74 75 0
-76 -77 0
-76 -78 0
-77 -78 0
76 77 78 0
-79 -80 0
-79 -81 0
-80 -81 0
79 80 81 0
-82 -83 0
-82 -84 0
-83 -84 0
82 83 84 0
-85 -86 0
-85 -87 0
-86 -87 0
85 86 87 0
-88 -89 0
-88 -90 0
-89 -90 0
88 89 90 0
-91 -92 0
-91 -93 0
-92 -93 0
91 92 93 0
-94 -95 0
-94 -96 0
-95 -96 0
94 95 96 0
-97 -98 0
-97 -99 0
-98 -99 0
97 98 99 0
-100 -101 0
-100 -102 0
-101 -102 0
100 101 102 0
-103 -104 0
-103 -105 0
-104 -105 0
103 104 105 0
-106 -107 0
-106 -108 0
-107 -108 0
106 107 108 0
-109 -110 0
-109 -111 0
-110 -111 0
109 110 111 0
-112 -113 0
-112 -114 0
-113 -114 0
112 113 114 0
-115 -116 0
-115 -117 0
-116 -117 0
115 116 117 0
-118 -119 0
-118 -120 0
-119 -120 0
118 119 120 0
-121 -122 0
-121 -123 0
-122 -123 0
121 122 123 0
-124 -125 0
-124 -126 0
-125 -126 0
124 125 126 0
-127 -128 0
-127 -129 0
-128 -129 0
127 128 129 0
-130 -131 0
-130 -132 0
-131 -132 0
130 131 132 0
-133 -134 0
-133 -135 0
-134 -135 0
133 134 135 0
-136 -137 0
-136 -138 0
-137 -138 0
136 137 138 0
-139 -140 0
-139 -141 0
-140 -141 0
139 140 141 0
-142 -143 0
-142 -144 0
-143 -144 0
142 143 144 0
-145 -146 0
-145 -147 0
-146 -147 0
145 146 147 0
-148 -149 0
-148 -150 0
-149 -150 0
148 149 150 0
-55 -1 0
-56 -2 0
-57 -3 0
-106 -1 0
-107 -2 0
-108 -3 0
-118 -1 0
-119 -2 0
-120 -3 0
-82 -4 0
-83 -5 0
-84 -6 0
-85 -4 0
-86 -5 0
-87 -6 0
-88 -4 0
-89 -5 0
-90 -6 0
-52 -7 0
-53 -8 0
-54 -9 0
-55 -7 0
-56 -8 0
-57 -9 0
-73 -7 0
-74 -8 0
-75 -9 0
-91 -7 0
-92 -8 0
-93 -9 0
-112 -7 0
-113 -8 0
-114 -9 0
-124 -7 0
-125 -8 0
-126 -9 0
-79 -10 0
-80 -11 0
-81 -12 0
-97 -10 0
-98 -11 0
-99 -12 0
-103 -10 0
-104 -11 0
-105 -12 0
-127 -10 0
-128 -11 0
-129 -12 0
-145 -10 0
-146 -11 0
-147 -12 0
-55 -13 0
-56 -14 0
-57 -15 0
-112 -13 0
-113 -14 0
-114 -15 0
-115 -13 0
-116 -14 0
-117 -15 0
-139 -13 0
-140 -14 0
-141 -15 0
-142 -13 0
-143 -14 0
-144 -15 0
-52 -16 0
-53 -17 0
-54 -18 0
-64 -16 0
-65 -17 0
-66 -18 0
-85 -16 0
-86 -17 0
-87 -18 0
-109 -16 0
-110 -17 0
-111 -18 0
-112 -16 0
-113 -17 0
-114 -18 0
-133 -16 0
-134 -17 0
-135 -18 0
-139 -16 0
-140 -17 0
-141 -18 0
-52 -19 0
-53 -20 0
-54 -21 0
-82 -19 0
-83 -20 0
-84 -21 0
-94 -19 0
-95 -20 0
-96 -21 0
-100 -19 0
-101 -20 0
-102 -21 0
-115 -19 0
-116 -20 0
-117 -21 0
-118 -19 0
-119 -20 0
-120 -21 0
-139 -19 0
-140 -20 0
-141 -21 0
-58 -22 0
-59 -23 0
-60 -24 0
-61 -22 0
-62 -23 0
-63 -24 0
-82 -22 0
-83 -23 0
-84 -24 0
-91 -22 0
-92 -23 0
-93 -24 0
-112 -22 0
-113 -23 0
-114 -24 0
-127 -22 0
-128 -23 0
-129 -24 0
-70 -25 0
-71 -26 0
-72 -27 0
-82 -25 0
-83 -26 0
-84 -27 0
-64 -28 0
-65 -29 0
-66 -30 0
-91 -28 0
-92 -29 0
-93 -30 0
-103 -28 0
-104 -29 0
-105 -30 0
-121 -28 0
-122 -29 0
-123 -30 0
-130 -28 0
-131 -29 0
-132 -30 0
-148 -28 0
-149 -29 0
-150 -30 0
-64 -31 0
-65 -32 0
-66 -33 0
-73 -31 0
-74 -32 0
-75 -33 0
-106 -31 0
-107 -32 0
-108 -33 0
-76 -34 0
-77 -35 0
-78 -36 0
-88 -34 0
-89 -35 0
-90 -36 0
-91 -34 0
-92 -35 0
-93 -36 0
-115 -34 0
-116 -35 0
-117 -36 0
-118 -34 0
-119 -35 0
-120 -36 0
-133 -34 0
-134 -35 0
-135 -36 0
-58 -37 0
-59 -38 0
-60 -39 0
-79 -37 0
-80 -38 0
-81 -39 0
-85 -40 0
-86 -41 0
-87 -42 0
-103 -40 0
-104 -41 0
-105 -42 0
-106 -40 0
-107 -41 0
-108 -42 0
-136 -40 0
-137 -41 0
-138 -42 0
-142 -40 0
-143 -41 0
-144 -42 0
-55 -43 0
-56 -44 0
-57 -45 0
-76 -43 0
-77 -44 0
-78 -45 0
-88 -43 0
-89 -44 0
-90 -45 0
-94 -43 0
-95 -44 0
-96 -45 0
-121 -43 0
-122 -44 0
-123 -45 0
-64 -46 0
-65 -47 0
-66 -48 0
-106 -46 0
-107 -47 0
-108 -48 0
-124 -46 0
-125 -47 0
-126 -48 0
-142 -46 0
-143 -47 0
-144 -48 0
-61 -49 0
-62 -50 0
-63 -51 0
-103 -49 0
-104 -50 0
-105 -51 0
-145 -49 0
-146 -50 0
-147 -51 0
-124 -52 0
-125 -53 0
-126 -54 0
-145 -52 0
-146 -53 0
-147 -54 0
-118 -55 0
-119 -56 0
-120 -57 0
-103 -58 0
-104 -59 0
-105 -60 0
-133 -58 0
-134 -59 0
-135 -60 0
-103 -61 0
-104 -62 0
-105 -63 0
-142 -61 0
-143 -62 0
-144 -63 0
-127 -64 0
-128 -65 0
-129 -66 0
-112 -67 0
-113 -68 0
-114 -69 0
-118 -67 0
-119 -68 0
-120 -69 0
-142 -67 0
-143 -68 0
-144 -69 0
-109 -70 0
-110 -71 0
-111 -72 0
-121 -70 0
-122 -71 0
-123 -72 0
-139 -70 0
-140 -71 0
-141 -72 0
-109 -73 0
-110 -74 0
-111 -75 0
-112 -73 0
-113 -74 0
-114 -75 0
-133 -73 0
-134 -74 0
-135 -75 0
-136 -73 0
-137 -74 0
-138 -75 0
-106 -76 0
-107 -77 0
-108 -78 0
-115 -79 0
-116 -80 0
-117 -81 0
-106 -82 0
-107 -83 0
-108 -84 0
-124 -82 0
-125 -83 0
-126 -84 0
-127 -82 0
-128 -83 0
-129 -84 0
-136 -82 0
-137 -83 0
-138 -84 0
-112 -85 0
-113 -86 0
-114 -87 0
-127 -85 0
-128 -86 0
-129 -87 0
-133 -85 0
-134 -86 0
-135 -87 0
-139 -85 0
-140 -86 0
-141 -87 0
-136 -88 0
-137 -89 0
-138 -90 0
-148 -88 0
-149 -89 0
-150 -90 0
-106 -91 0
-107 -92 0
-108 -93 0
-118 -91 0
-119 -92 0
-120 -93 0
-106 -94 0
-107 -95 0
-108 -96 0
-139 -94 0
-140 -95 0
-141 -96 0
-130 -97 0
-131 -98 0
-132 -99 0
-109 -100 0
-110 -101 0
-111 -102 0
-127 -100 0
-128 -101 0
-129 -102 0
